c description: Random 3-CNF over 14 variables and 70 clauses
p cnf 14 70
3 5 -11 0
-4 -7 -12 0
-2 5 -9 0
-3 7 -11 0
1 -2 6 0
4 13 14 0
5 -8 12 0
3 10 -13 0
-4 5 11 0
-3 -10 14 0
-8 9 -10 0
4 -9 11 0
-7 13 -14 0
5 -12 -13 0
-3 -11 12 0
-2 -3 7 0
-1 -2 -12 0
-1 -2 -9 0
-2 4 -14 0
-1 -11 14 0
-1 5 11 0
-8 10 -14 0
1 2 6 0
-5 11 -12 0
-1 -2 -3 0
9 11 -14 0
10 11 -12 0
1 5 14 0
-2 7 -12 0
5 -8 13 0
-2 -7 -14 0
5 7 -11 0
-4 -7 13 0
3 7 12 0
-5 6 8 0
-2 3 -14 0
-3 5 10 0
-2 -7 -11 0
1 5 -7 0
4 10 -13 0
-6 -10 14 0
4 9 -14 0
1 -10 12 0
-1 3 -13 0
3 4 10 0
1 -6 8 0
4 8 12 0
7 -8 -11 0
4 10 -12 0
-2 -7 -13 0
-2 10 -13 0
-6 -7 -14 0
-11 -12 13 0
-3 -10 12 0
1 9 11 0
6 8 14 0
-9 -12 13 0
1 9 -13 0
-5 7 -10 0
4 -7 12 0
-1 -4 8 0
-1 -13 -14 0
3 -10 14 0
-6 7 8 0
2 4 -10 0
-6 -9 -12 0
5 -8 -10 0
1 3 -11 0
-2 -10 -14 0
-9 -11 13 0